\ Model matlab
\ LP format - for model browsing. Use MPS format to capture full model detail.
Minimize
  20 P1
Subject To
 R0: <= 1e+100
 R1: <= 1e+100
 R2: <= 1e+100
 R3: <= 1e+100
 R4: <= 1e+100
 R5: <= 1e+100
 R6: <= 1e+100
 R7: <= 1e+100
 R8: <= 1e+100
 R9: <= 1e+100
 R10: <= 1e+100
 R11: <= 1e+100
 R12: <= 1e+100
 R13: <= 1e+100
 R14: <= 1e+100
 R15: <= 1e+100
 R16: <= 1e+100
 R17: <= 1e+100
 R18: <= 1e+100
 R19: <= 1e+100
 R20: <= 1e+100
 R21: <= 1e+100
 R22: <= 1e+100
 R23: <= 1e+100
 R24: <= 1e+100
 R25: <= 1e+100
 R26: <= 1e+100
 R27: <= 1e+100
 R28: <= 1e+100
 R29: <= 1e+100
 R30: <= 1e+100
 R31: <= 1e+100
 R32: <= 1e+100
 R33: <= 1e+100
 R34: <= 1e+100
 R35: <= 1e+100
 R36: <= 1e+100
 R37: <= 1e+100
 R38: <= 1e+100
 R39: <= 1e+100
 R40: <= 1e+100
 R41: <= 1e+100
 R42: <= 1e+100
 R43: <= 1e+100
 R44: <= 1e+100
 R45: <= 1e+100
 R46: <= 1e+100
 R47: <= 1e+100
 R48: <= 1e+100
 R49: <= 1e+100
 R50: <= 1e+100
 R51: <= 1e+100
 R52: <= 1e+100
 R53: <= 1e+100
 R54: <= 1e+100
 R55: <= 1e+100
 R56: <= 1e+100
 R57: <= 1e+100
 R58: <= 1e+100
 R59: <= 1e+100
 R60: <= 1e+100
 R61: <= 1e+100
 R62: <= 1e+100
 R63: <= 1e+100
 R64: <= 1e+100
 R65: <= 1e+100
 R66: <= 1e+100
 R67: <= 1e+100
 R68: <= 1e+100
 R69: <= 1e+100
 R70: <= 1e+100
 R71: <= 1e+100
 R72: <= 1e+100
 R73: <= 1e+100
 R74: P1 = 2.935506487145834
Bounds
 P1 <= 10
End
